NAME : CMT3
COMMENT : 826.14
TYPE : CVRP
DIMENSION : 101
EDGE_WEIGHT_TYPE : EUC_2D
CAPACITY : 200
NODE_COORD_SECTION
1 35.00000 35.00000
2 41.00000 49.00000
3 35.00000 17.00000
4 55.00000 45.00000
5 55.00000 20.00000
6 15.00000 30.00000
7 25.00000 30.00000
8 20.00000 50.00000
9 10.00000 43.00000
10 55.00000 60.00000
11 30.00000 60.00000
12 20.00000 65.00000
13 50.00000 35.00000
14 30.00000 25.00000
15 15.00000 10.00000
16 30.00000 5.00000
17 10.00000 20.00000
18 5.00000 30.00000
19 20.00000 40.00000
20 15.00000 60.00000
21 45.00000 65.00000
22 45.00000 20.00000
23 45.00000 10.00000
24 55.00000 5.00000
25 65.00000 35.00000
26 65.00000 20.00000
27 45.00000 30.00000
28 35.00000 40.00000
29 41.00000 37.00000
30 64.00000 42.00000
31 40.00000 60.00000
32 31.00000 52.00000
33 35.00000 69.00000
34 53.00000 52.00000
35 65.00000 55.00000
36 63.00000 65.00000
37 2.00000 60.00000
38 20.00000 20.00000
39 5.00000 5.00000
40 60.00000 12.00000
41 40.00000 25.00000
42 42.00000 7.00000
43 24.00000 12.00000
44 23.00000 3.00000
45 11.00000 14.00000
46 6.00000 38.00000
47 2.00000 48.00000
48 8.00000 56.00000
49 13.00000 52.00000
50 6.00000 68.00000
51 47.00000 47.00000
52 49.00000 58.00000
53 27.00000 43.00000
54 37.00000 31.00000
55 57.00000 29.00000
56 63.00000 23.00000
57 53.00000 12.00000
58 32.00000 12.00000
59 36.00000 26.00000
60 21.00000 24.00000
61 17.00000 34.00000
62 12.00000 24.00000
63 24.00000 58.00000
64 27.00000 69.00000
65 15.00000 77.00000
66 62.00000 77.00000
67 49.00000 73.00000
68 67.00000 5.00000
69 56.00000 39.00000
70 37.00000 47.00000
71 37.00000 56.00000
72 57.00000 68.00000
73 47.00000 16.00000
74 44.00000 17.00000
75 46.00000 13.00000
76 49.00000 11.00000
77 49.00000 42.00000
78 53.00000 43.00000
79 61.00000 52.00000
80 57.00000 48.00000
81 56.00000 37.00000
82 55.00000 54.00000
83 15.00000 47.00000
84 14.00000 37.00000
85 11.00000 31.00000
86 16.00000 22.00000
87 4.00000 18.00000
88 28.00000 18.00000
89 26.00000 52.00000
90 26.00000 35.00000
91 31.00000 67.00000
92 15.00000 19.00000
93 22.00000 22.00000
94 18.00000 24.00000
95 26.00000 27.00000
96 25.00000 24.00000
97 22.00000 27.00000
98 25.00000 21.00000
99 19.00000 21.00000
100 20.00000 26.00000
101 18.00000 18.00000
DEMAND_SECTION
1 0
2 10
3 7
4 13
5 19
6 26
7 3
8 5
9 9
10 16
11 16
12 12
13 19
14 23
15 20
16 8
17 19
18 2
19 12
20 17
21 9
22 11
23 18
24 29
25 3
26 6
27 17
28 16
29 16
30 9
31 21
32 27
33 23
34 11
35 14
36 8
37 5
38 8
39 16
40 31
41 9
42 5
43 5
44 7
45 18
46 16
47 1
48 27
49 36
50 30
51 13
52 10
53 9
54 14
55 18
56 2
57 6
58 7
59 18
60 28
61 3
62 13
63 19
64 10
65 9
66 20
67 25
68 25
69 36
70 6
71 5
72 15
73 25
74 9
75 8
76 18
77 13
78 14
79 3
80 23
81 6
82 26
83 16
84 11
85 7
86 41
87 35
88 26
89 9
90 15
91 3
92 1
93 2
94 22
95 27
96 20
97 11
98 12
99 10
100 9
101 17
DEPOT_SECTION
1
-1
EOF
